p tw 64 204
0 1
0 2
0 11
0 15
0 12
0 14
0 3
0 13
1 3
1 11
1 12
1 23
1 2
1 13
1 14
2 3
2 11
2 14
2 30
2 12
2 13
3 11
3 14
3 32
3 13
3 12
4 5
4 6
4 7
4 8
4 9
4 10
5 6
5 7
5 8
5 9
5 10
6 7
6 8
6 9
6 10
7 8
7 9
7 10
7 12
8 9
8 10
9 10
11 14
11 12
11 13
11 51
12 13
12 14
13 14
13 31
14 22
15 58
15 59
15 60
15 61
15 62
15 63
16 17
16 18
16 19
16 20
16 21
16 22
17 18
17 19
17 20
17 21
17 22
18 19
18 20
18 21
18 22
19 20
19 21
19 22
20 21
20 22
21 22
23 24
23 25
23 26
23 27
23 28
23 29
24 25
24 26
24 27
24 28
24 29
25 26
25 27
25 28
25 29
26 27
26 28
26 29
27 28
27 29
28 29
30 39
30 40
30 41
30 42
30 43
30 44
31 33
31 34
31 35
31 36
31 37
31 38
32 45
32 46
32 47
32 48
32 49
32 50
33 34
33 35
33 36
33 37
33 38
34 35
34 36
34 37
34 38
35 36
35 37
35 38
36 37
36 38
37 38
39 40
39 41
39 42
39 43
39 44
40 41
40 42
40 43
40 44
41 42
41 43
41 44
42 43
42 44
43 44
45 46
45 47
45 48
45 49
45 50
46 47
46 48
46 49
46 50
47 48
47 49
47 50
48 49
48 50
49 50
51 52
51 53
51 54
51 55
51 56
51 57
52 53
52 54
52 55
52 56
52 57
53 54
53 55
53 56
53 57
54 55
54 56
54 57
55 56
55 57
56 57
58 59
58 60
58 61
58 62
58 63
59 60
59 61
59 62
59 63
60 61
60 62
60 63
61 62
61 63
62 63
